5 5
0 29 2 83 3 37 1 21 4 88
1 90 4 12 2 48 3 83 0 47
4 94 1 15 0 67 3 13 2 59
2 73 0 13 3 80 1 78 4 72
4 19 2 57 1 32 0 99 3 87
-1
0 2 3 4 5
0 2 3 5
0 2 5
0 4 5
0 1 2 3 5
-2
153 203 246 293
110 178 340
152 369
318 487
29 76 143 321

508 5
0 12 16 9 23
5 11 3 22 18
1 7 15 21 14
2 8 13 17 24
10 6 20 4 19
